Random number seeds ... 
        21292202       -52626929
simpraise
leopoldo.sanchez-rodriguez@inra.fr
  
FILE insim.001                     
NAME_OF_THIS_RUN insim                                             
  
INPUT_PARAMETERS
************************************************
* monoecious
Total_#_traits:                                       1
Total_#_selected_loci:                                8
Loci_trait_X:                                         4
Pleiotropic_loci:                                     0
Loci_trait_Y:                                         4
Tmax:                                                 1
#_male_parents:                                       32
#_female_parents:                                     32
#_scored_candidates:                                  64
#_replicates:                                         1
************************************************
  
OUTPUT VARIABLES
************************************************
 
Genotypic_mean_X
   0.0000000000000000        0.0000000000000000     
 -0.14062500000000000        0.0000000000000000     
Genotypic_mean_Y
   0.0000000000000000        0.0000000000000000     
   0.0000000000000000        0.0000000000000000     
Genotypic_mean_xx
   0.0000000000000000        0.0000000000000000     
 -0.14062500000000000        0.0000000000000000     
Genotypic_mean_yy
   0.0000000000000000        0.0000000000000000     
  0.21875000000000000        0.0000000000000000     
Genotypic_mean_xy
   0.0000000000000000        0.0000000000000000     
   0.0000000000000000        0.0000000000000000     
Genotypic_mean_yx
   0.0000000000000000        0.0000000000000000     
   0.0000000000000000        0.0000000000000000     
Genotypic_variance_X
   0.0000000000000000        0.0000000000000000     
   1.7145996093750000        0.0000000000000000     
Genotypic_variance_Y
   0.0000000000000000        0.0000000000000000     
   0.0000000000000000        0.0000000000000000     
Genotypic_covariance_XY
   0.0000000000000000        0.0000000000000000     
   0.0000000000000000        0.0000000000000000     
Additive_variance_X
   0.0000000000000000        0.0000000000000000     
   1.7145996093750000        0.0000000000000000     
Additive_variance_Y
   0.0000000000000000        0.0000000000000000     
   0.0000000000000000        0.0000000000000000     
Additive_covariance_XY
   0.0000000000000000        0.0000000000000000     
   0.0000000000000000        0.0000000000000000     
Dominance_variance_X
   0.0000000000000000        0.0000000000000000     
   0.0000000000000000        0.0000000000000000     
Dominance_variance_Y
   0.0000000000000000        0.0000000000000000     
   0.0000000000000000        0.0000000000000000     
Additive_Genic_X
   0.0000000000000000        0.0000000000000000     
   1.9030761718750000        0.0000000000000000     
Additive_Genic_Y
   0.0000000000000000        0.0000000000000000     
   1.8813476562500000        0.0000000000000000     
Dominance_Genic_X
   0.0000000000000000        0.0000000000000000     
   0.0000000000000000        0.0000000000000000     
Dominance_Genic_Y
   0.0000000000000000        0.0000000000000000     
   0.0000000000000000        0.0000000000000000     
LD_covariance_X11
   0.0000000000000000        0.0000000000000000     
  -9.4238281250000000E-002   0.0000000000000000     
LD_covariance_X12
   0.0000000000000000        0.0000000000000000     
   0.0000000000000000        0.0000000000000000     
LD_covariance_X22
   0.0000000000000000        0.0000000000000000     
   0.0000000000000000        0.0000000000000000     
LD_covariance_Y33
   0.0000000000000000        0.0000000000000000     
   6.6650390625000000E-002   0.0000000000000000     
LD_covariance_Y23
   0.0000000000000000        0.0000000000000000     
   0.0000000000000000        0.0000000000000000     
LD_covariance_Y22
   0.0000000000000000        0.0000000000000000     
   0.0000000000000000        0.0000000000000000     
LD_covariance_XY13
   0.0000000000000000        0.0000000000000000     
   1.5136718750000000E-002   0.0000000000000000     
LD_covariance_XY22
   0.0000000000000000        0.0000000000000000     
   0.0000000000000000        0.0000000000000000     
LD_covariance_XY12
   0.0000000000000000        0.0000000000000000     
   0.0000000000000000        0.0000000000000000     
LD_covariance_XY23
   0.0000000000000000        0.0000000000000000     
   0.0000000000000000        0.0000000000000000     
Pleiotropic_covariance_XY22
   0.0000000000000000        0.0000000000000000     
   0.0000000000000000        0.0000000000000000     
Fiped_tot
   0.0000000000000000        0.0000000000000000     
   0.0000000000000000        0.0000000000000000     
Fimol_tot
   0.0000000000000000        0.0000000000000000     
   1.5625000000000000E-002   0.0000000000000000     
Coaped
   0.0000000000000000        0.0000000000000000     
   7.8125000000000000E-003   0.0000000000000000     
Coamol
   0.0000000000000000        0.0000000000000000     
   3.2440185546875000E-002   0.0000000000000000     
Coa_newg
   0.0000000000000000        0.0000000000000000     
   3.6575317382812500E-002   0.0000000000000000     
