Random number seeds ... 
       -47107760        11734613
simpraise
leopoldo.sanchez-rodriguez@inra.fr
  
FILE insim.001                     
NAME_OF_THIS_RUN insim                                             
  
INPUT_PARAMETERS
************************************************
* monoecious
Total_#_traits:                                       1
Total_#_selected_loci:                                8
Loci_trait_X:                                         4
Pleiotropic_loci:                                     0
Loci_trait_Y:                                         4
Tmax:                                                 1
#_male_parents:                                        1
#_female_parents:                                      1
#_scored_candidates:                                  64
#_replicates:                                         1
************************************************
  
OUTPUT VARIABLES
************************************************
 
Genotypic_mean_X
  0.50000000000000000        0.0000000000000000     
  0.56250000000000000        0.0000000000000000     
Genotypic_mean_Y
   0.0000000000000000        0.0000000000000000     
   0.0000000000000000        0.0000000000000000     
Genotypic_mean_xx
  0.50000000000000000        0.0000000000000000     
  0.56250000000000000        0.0000000000000000     
Genotypic_mean_yy
   1.0000000000000000        0.0000000000000000     
  0.71875000000000000        0.0000000000000000     
Genotypic_mean_xy
   0.0000000000000000        0.0000000000000000     
   0.0000000000000000        0.0000000000000000     
Genotypic_mean_yx
   0.0000000000000000        0.0000000000000000     
   0.0000000000000000        0.0000000000000000     
Genotypic_variance_X
  0.25000000000000000        0.0000000000000000     
   1.1523437500000000        0.0000000000000000     
Genotypic_variance_Y
   0.0000000000000000        0.0000000000000000     
   0.0000000000000000        0.0000000000000000     
Genotypic_covariance_XY
   0.0000000000000000        0.0000000000000000     
   0.0000000000000000        0.0000000000000000     
Additive_variance_X
  0.25000000000000000        0.0000000000000000     
   1.1523437500000000        0.0000000000000000     
Additive_variance_Y
   0.0000000000000000        0.0000000000000000     
   0.0000000000000000        0.0000000000000000     
Additive_covariance_XY
   0.0000000000000000        0.0000000000000000     
   0.0000000000000000        0.0000000000000000     
Dominance_variance_X
   0.0000000000000000        0.0000000000000000     
   0.0000000000000000        0.0000000000000000     
Dominance_variance_Y
   0.0000000000000000        0.0000000000000000     
   0.0000000000000000        0.0000000000000000     
Additive_Genic_X
  0.25000000000000000        0.0000000000000000     
   1.1660156250000000        0.0000000000000000     
Additive_Genic_Y
   1.0000000000000000        0.0000000000000000     
  0.96923828125000000        0.0000000000000000     
Dominance_Genic_X
   0.0000000000000000        0.0000000000000000     
   0.0000000000000000        0.0000000000000000     
Dominance_Genic_Y
   0.0000000000000000        0.0000000000000000     
   0.0000000000000000        0.0000000000000000     
LD_covariance_X11
   0.0000000000000000        0.0000000000000000     
  -6.8359375000000000E-003   0.0000000000000000     
LD_covariance_X12
   0.0000000000000000        0.0000000000000000     
   0.0000000000000000        0.0000000000000000     
LD_covariance_X22
   0.0000000000000000        0.0000000000000000     
   0.0000000000000000        0.0000000000000000     
LD_covariance_Y33
   1.5000000000000000        0.0000000000000000     
   2.2705078125000000E-002   0.0000000000000000     
LD_covariance_Y23
   0.0000000000000000        0.0000000000000000     
   0.0000000000000000        0.0000000000000000     
LD_covariance_Y22
   0.0000000000000000        0.0000000000000000     
   0.0000000000000000        0.0000000000000000     
LD_covariance_XY13
  -1.0000000000000000        0.0000000000000000     
   1.7578125000000000E-002   0.0000000000000000     
LD_covariance_XY22
   0.0000000000000000        0.0000000000000000     
   0.0000000000000000        0.0000000000000000     
LD_covariance_XY12
   0.0000000000000000        0.0000000000000000     
   0.0000000000000000        0.0000000000000000     
LD_covariance_XY23
   0.0000000000000000        0.0000000000000000     
   0.0000000000000000        0.0000000000000000     
Pleiotropic_covariance_XY22
   0.0000000000000000        0.0000000000000000     
   0.0000000000000000        0.0000000000000000     
Fiped_tot
   0.0000000000000000        0.0000000000000000     
   0.0000000000000000        0.0000000000000000     
Fimol_tot
   0.0000000000000000        0.0000000000000000     
   0.0000000000000000        0.0000000000000000     
Coaped
  0.25000000000000000        0.0000000000000000     
  0.25390625000000000        0.0000000000000000     
Coamol
  0.25000000000000000        0.0000000000000000     
  0.25445556640625000        0.0000000000000000     
Coa_newg
   0.0000000000000000        0.0000000000000000     
  0.26687622070312500        0.0000000000000000     
